
Gurobi 9.1.2 (linux64, gurobi_cl) logging started Fri Jul 30 13:55:05 2021

Using license file /opt/gurobi/gurobi.lic
Set parameter TimeLimit to value 600
Set parameter Heuristics to value 0.1
Set parameter Cuts to value 1
Set parameter LogFile to value 912-Cuts1-Heuristics0.1-glass4-2.log
Set parameter Seed to value 2

Gurobi Optimizer version 9.1.2 build v9.1.2rc0 (linux64)
Copyright (c) 2021, Gurobi Optimization, LLC

Read MPS format model from file /nfs/models/mip/glass4.mps.bz2
Reading time = 0.00 seconds
glass4: 396 rows, 322 columns, 1815 nonzeros
Thread count: 4 physical cores, 8 logical processors, using up to 8 threads
Optimize a model with 396 rows, 322 columns and 1815 nonzeros
Model fingerprint: 0x0a9d9037
Variable types: 20 continuous, 302 integer (0 binary)
Coefficient statistics:
  Matrix range     [1e+00, 8e+06]
  Objective range  [1e+00, 1e+06]
  Bounds range     [1e+00, 8e+02]
  RHS range        [1e+00, 8e+06]
Presolve removed 6 rows and 6 columns
Presolve time: 0.00s
Presolved: 390 rows, 316 columns, 1803 nonzeros
Variable types: 19 continuous, 297 integer (297 binary)
Found heuristic solution: objective 3.133356e+09

Root relaxation: objective 8.000024e+08, 72 iterations, 0.00 seconds

    Nodes    |    Current Node    |     Objective Bounds      |     Work
 Expl Unexpl |  Obj  Depth IntInf | Incumbent    BestBd   Gap | It/Node Time

     0     0 8.0000e+08    0   72 3.1334e+09 8.0000e+08  74.5%     -    0s
H    0     0                    2.150017e+09 8.0000e+08  62.8%     -    0s
H    0     0                    2.100017e+09 8.0000e+08  61.9%     -    0s
     0     0 8.0000e+08    0   72 2.1000e+09 8.0000e+08  61.9%     -    0s
     0     0 8.0000e+08    0   84 2.1000e+09 8.0000e+08  61.9%     -    0s
     0     0 8.0000e+08    0   79 2.1000e+09 8.0000e+08  61.9%     -    0s
H    0     0                    2.000018e+09 8.0000e+08  60.0%     -    0s
     0     2 8.0000e+08    0   78 2.0000e+09 8.0000e+08  60.0%     -    0s
H   31    60                    2.000017e+09 8.0000e+08  60.0%  18.7    0s
H  718   739                    1.850016e+09 8.0000e+08  56.8%   5.4    0s
H  807   957                    1.850016e+09 8.0000e+08  56.8%   5.5    0s
* 1676  1283              40    1.833353e+09 8.0000e+08  56.4%   9.5    1s
* 1835  1305              43    1.833352e+09 8.0000e+08  56.4%   9.9    1s
* 1837  1261              44    1.833351e+09 8.0000e+08  56.4%   9.8    1s
* 1839  1219              42    1.825018e+09 8.0000e+08  56.2%   9.8    1s
H 2144  1306                    1.675015e+09 8.0000e+08  52.2%   9.9    1s
H 2861  1482                    1.640014e+09 8.0000e+08  51.2%  13.0    2s
H 2864  1439                    1.606680e+09 8.0000e+08  50.2%  13.0    2s
H 2866  1295                    1.533348e+09 8.0000e+08  47.8%  13.0    2s
H 2918  1247                    1.533346e+09 8.0000e+08  47.8%  12.9    2s
H 3243  1451                    1.500013e+09 8.0000e+08  46.7%  13.8    2s
H 3244  1449                    1.500013e+09 8.0000e+08  46.7%  13.8    2s
H 3246  1434                    1.500012e+09 8.0000e+08  46.7%  13.8    2s
H 5755  2472                    1.433346e+09 8.0001e+08  44.2%  14.2    3s
  7164  2972 1.1000e+09   32   77 1.4333e+09 8.0001e+08  44.2%  18.5    5s
 11857  4503 9.7144e+08   39   56 1.4333e+09 8.0001e+08  44.2%  24.8   10s
*14979  5520              50    1.400013e+09 8.5001e+08  39.3%  26.6   12s
H28294 11394                    1.400013e+09 9.0001e+08  35.7%  22.9   15s
 58359 23014 infeasible   32      1.4000e+09 9.0001e+08  35.7%  18.9   20s
 84765 29727 infeasible   45      1.4000e+09 9.0001e+08  35.7%  18.1   25s
 113095 34668 1.4000e+09   40   60 1.4000e+09 9.7501e+08  30.4%  17.7   30s
*126960 37179              45    1.400013e+09 1.0000e+09  28.6%  17.7   32s
 136383 41368 1.4000e+09   35   26 1.4000e+09 1.0000e+09  28.6%  18.3   35s
 163793 47353 1.2000e+09   41   36 1.4000e+09 1.0000e+09  28.6%  18.3   40s
*175547 37512              38    1.366682e+09 1.0000e+09  26.8%  18.2   42s
*180288 34769              46    1.366680e+09 1.0000e+09  26.8%  18.6   44s
*180289 34091              45    1.350013e+09 1.0000e+09  25.9%  18.6   44s
*180409 33243              46    1.333346e+09 1.0000e+09  25.0%  18.6   44s
*180411 32620              46    1.320013e+09 1.0000e+09  24.2%  18.6   44s
*180417 24679              43    1.280022e+09 1.0000e+09  21.9%  18.6   44s
*180568 22406              46    1.200013e+09 1.0000e+09  16.7%  18.6   44s
 186566 17197 1.1000e+09   28   57 1.2000e+09 1.1000e+09  8.33%  18.3   45s

Cutting planes:
  Gomory: 76
  Cover: 4
  Implied bound: 32
  MIR: 20
  Flow cover: 191
  GUB cover: 1
  RLT: 105
  Relax-and-lift: 98

Explored 196795 nodes (3505845 simplex iterations) in 45.75 seconds
Thread count was 8 (of 8 available processors)

Solution count 10: 1.20001e+09 1.28002e+09 1.32001e+09 ... 1.40001e+09

Optimal solution found (tolerance 1.00e-04)
Best objective 1.200012600000e+09, best bound 1.200003400000e+09, gap 0.0008%
